
Gurobi 11.0.0 (mac64[x86], gurobi_cl) logging started Mon Feb 12 00:06:44 2024

Set parameter Username
Set parameter LogFile to value "gurobi.log"
Using license file /Users/brodie/gurobi.lic
Academic license - for non-commercial use only - expires 2025-02-08

Gurobi Optimizer version 11.0.0 build v11.0.0rc2 (mac64[x86] - Darwin 23.2.0 23C71)
Copyright (c) 2023, Gurobi Optimization, LLC

Read LP format model from file /var/folders/b6/t14lv28n5xqdhgq7zcrqwfkm0000gn/T/d78d2fc271e3405c83edfbd3eb782ccc-pulp.lp
Reading time = 0.17 seconds
OBJ: 54571 rows, 51720 columns, 285923 nonzeros

CPU model: Intel(R) Core(TM) i7-8559U CPU @ 2.70GHz
Thread count: 4 physical cores, 8 logical processors, using up to 8 threads

Optimize a model with 54571 rows, 51720 columns and 285923 nonzeros
Model fingerprint: 0x4812b385
Variable types: 11568 continuous, 40152 integer (40152 binary)
Coefficient statistics:
  Matrix range     [1e-02, 5e+07]
  Objective range  [1e+00, 1e+00]
  Bounds range     [1e+00, 1e+00]
  RHS range        [1e+00, 5e+07]
Found heuristic solution: objective -0.0000000
Presolve removed 677 rows and 650 columns
Presolve time: 0.57s
Presolved: 53894 rows, 51070 columns, 274619 nonzeros
Variable types: 11400 continuous, 39670 integer (39670 binary)
Deterministic concurrent LP optimizer: primal and dual simplex
Showing primal log only...

Concurrent spin time: 0.01s

Solved with primal simplex
Extra simplex iterations after uncrush: 5108

Root relaxation: objective 4.600000e+01, 23707 iterations, 2.83 seconds (2.41 work units)
Total elapsed time = 12.56s (DegenMoves)
Total elapsed time = 15.89s (DegenMoves)

    Nodes    |    Current Node    |     Objective Bounds      |     Work
 Expl Unexpl |  Obj  Depth IntInf | Incumbent    BestBd   Gap | It/Node Time

     0     0   46.00000    0  316   -0.00000   46.00000      -     -   17s
     0     0   46.00000    0  612   -0.00000   46.00000      -     -   20s
     0     0   46.00000    0  498   -0.00000   46.00000      -     -   22s
     0     0   46.00000    0  347   -0.00000   46.00000      -     -   49s
     0     0   46.00000    0  426   -0.00000   46.00000      -     -   51s
     0     0   46.00000    0  321   -0.00000   46.00000      -     -   86s
     0     0   46.00000    0  406   -0.00000   46.00000      -     -   89s
     0     0   46.00000    0  433   -0.00000   46.00000      -     -  123s
     0     0   46.00000    0  537   -0.00000   46.00000      -     -  126s
     0     0   46.00000    0  528   -0.00000   46.00000      -     -  150s
     0     0   46.00000    0  342   -0.00000   46.00000      -     -  165s
     0     2   46.00000    0  342   -0.00000   46.00000      -     -  176s
     5     2   46.00000    3  437   -0.00000   46.00000      -  3475  181s
     9     4   46.00000    5  588   -0.00000   46.00000      -  2410  191s
    11     6   46.00000    6  965   -0.00000   46.00000      -  3084  200s
    15     6   46.00000    7  967   -0.00000   46.00000      -  3465  211s
    19     4   46.00000    8  954   -0.00000   46.00000      -  2934  235s
    23     6 infeasible    8        -0.00000   46.00000      -  2613  252s
    29    11   46.00000   10  684   -0.00000   46.00000      -  3685  258s
    36    10 infeasible   11        -0.00000   46.00000      -  3167  262s
    41     3 infeasible   12        -0.00000   46.00000      -  2870  266s
    55     4   46.00000   15 1036   -0.00000   46.00000      -  2432  270s
    62    12   46.00000   18  777   -0.00000   46.00000      -  2293  275s
    69    14   46.00000   20  365   -0.00000   46.00000      -  2779  298s
    75    24   46.00000   21  368   -0.00000   46.00000      -  3409  319s
    85    37   46.00000   24  466   -0.00000   46.00000      -  3635  322s
   100    81   46.00000   27  566   -0.00000   46.00000      -  3201  333s
   158   137   40.72054   43  600   -0.00000   46.00000      -  2199  349s
   225   191   38.00000   67  500   -0.00000   46.00000      -  1658  365s
   286   252   34.00000   80  458   -0.00000   46.00000      -  1371  377s
H  351   322                       1.0000000   46.00000  4500%  1176  393s
   433   419   34.00000  116  457    1.00000   46.00000  4500%  1018  412s
   548   502   28.03533  154  297    1.00000   46.00000  4500%   874  430s
   650   579   27.00000  184  321    1.00000   46.00000  4500%   782  448s
   743   670   27.00000  200  378    1.00000   46.00000  4500%   727  464s
   830   670   38.00000   83  326    1.00000   46.00000  4500%   675  465s
   848   768   27.00000  209  355    1.00000   46.00000  4500%   669  484s
   962   859   27.00000  232  336    1.00000   46.00000  4500%   620  509s
  1083   912 infeasible   58         1.00000   46.00000  4500%   578  538s
  1200   928   46.00000   19  719    1.00000   46.00000  4500%   557  580s
  1256   906 infeasible   21         1.00000   46.00000  4500%   576  601s
  1282   929   38.00000   66  718    1.00000   46.00000  4500%   586  615s
  1313   944   38.00000   83  535    1.00000   46.00000  4500%   600  648s
  1338   985   38.00000  100  570    1.00000   46.00000  4500%   683  663s
  1394   986   46.00000   29  342    1.00000   46.00000  4500%   696  674s
  1396   987   30.00000  142  320    1.00000   46.00000  4500%   695  691s
  1397   988   27.00000  159  297    1.00000   46.00000  4500%   694  712s
  1398   989   25.00000  214  688    1.00000   46.00000  4500%   694  717s
  1399   989   25.00000  263  420    1.00000   46.00000  4500%   693  749s
  1400   990   29.00000  160  745    1.00000   46.00000  4500%   693  754s
  1401   991   40.26852   46  396    1.00000   46.00000  4500%   692  785s
  1402   991   27.00000  197  830    1.00000   46.00000  4500%   692  791s
  1403   992   38.00000  103  597    1.00000   46.00000  4500%   691  816s
  1404   993   34.00000  119  878    1.00000   46.00000  4500%   691  823s
  1405   993   25.00000  241  597    1.00000   46.00000  4500%   690  890s
  1406   994   27.00000  228  909    1.00000   46.00000  4500%   690  897s
  1407   995   36.00000  110  657    1.00000   46.00000  4500%   689  944s
  1408   995   45.00000   42  981    1.00000   46.00000  4500%   689  952s
  1409   996   40.26852   46  874    1.00000   46.00000  4500%   688  992s
  1410   997   38.00000   87 1096    1.00000   46.00000  4500%   688 1003s
  1411   997   23.00000  260  643    1.00000   46.00000  4500%   687 1083s
  1412   998   25.00000  239  880    1.00000   46.00000  4500%   687 1091s
  1413   999   38.00000   86  800    1.00000   46.00000  4500%   686 1147s
  1414   999   38.00000   65 1058    1.00000   46.00000  4500%   686 1153s
  1415  1000   38.00000   87  652    1.00000   46.00000  4500%   685 1231s
  1416  1001   36.83654  125  652    1.00000   46.00000  4500%   685 1250s
  1417  1001   21.00000  359  652    1.00000   46.00000  4500%   684 1256s
  1418  1003   46.00000   14  686    1.00000   46.00000  4500%  1336 1297s
  1422  1002   46.00000   16  646    1.00000   46.00000  4500%  1333 1300s
  1426  1000   46.00000   18  798    1.00000   46.00000  4500%  1333 1308s
  1430   999   46.00000   20  733    1.00000   46.00000  4500%  1334 1315s
  1434  1000   46.00000   22  771    1.00000   46.00000  4500%  1336 1325s
  1442   999   46.00000   24  776    1.00000   46.00000  4500%  1333 1333s
  1450  1000   46.00000   26  785    1.00000   46.00000  4500%  1329 1340s
  1454  1001 infeasible   26         1.00000   46.00000  4500%  1327 1345s
  1470  1013   46.00000   28  833    1.00000   46.00000  4500%  1324 1355s
  1475  1014 infeasible   28         1.00000   46.00000  4500%  1324 1361s
  1484  1015   46.00000   29 1007    1.00000   46.00000  4500%  1326 1371s
  1490  1040 infeasible   29         1.00000   46.00000  4500%  1331 1383s
  1519  1091   46.00000   30  989    1.00000   46.00000  4500%  1316 1407s
  1586  1156   46.00000   32  889    1.00000   46.00000  4500%  1286 1450s
  1697  1200   46.00000   41  689    1.00000   46.00000  4500%  1253 1484s
  1790  1262   46.00000   43  652    1.00000   46.00000  4500%  1217 1520s
  1903  1284   46.00000   51  699    1.00000   46.00000  4500%  1189 1562s
H 1930  1224                       3.9999999   46.00000  1050%  1192 1562s
  1981  1289   46.00000   54  680    4.00000   46.00000  1050%  1182 1611s
  2083  1354   45.72445   62  678    4.00000   46.00000  1050%  1186 1663s
  2221  1491   41.40910   75  447    4.00000   46.00000  1050%  1197 1722s
